language ESSENCE' 1.0
letting lastdx=98
letting cage be [
[36,6,10,6,9,7,9,8,9,8,8],
[30,12,9,11,9,11,10,10,10,10,11],
[13,6,7,0,0, 0,0, 0,0, 0,0],
[19,6,11,6,12,0,0, 0,0, 0,0],
[35,1,9,2,9,2,8,1,8,1,7],
[8,11,5,0,0, 0,0, 0,0, 0,0],
[35,10,12,10,13,9,13,0,0, 0,0],
[36,15,13,15,14,16,14,16,15,0,0],
[42,15,5,15,6,16,6,16,7,16,8],
[3,7,7,0,0, 0,0, 0,0, 0,0],
[11,11,1,0,0, 0,0, 0,0, 0,0],
[41,13,1,13,2,12,2,12,1,0,0],
[1,12,6,0,0, 0,0, 0,0, 0,0],
[25,15,1,16,1,16,2,16,3,0,0],
[40,4,12,4,11,3,11,3,10,0,0],
[14,4,8,0,0, 0,0, 0,0, 0,0],
[26,10,2,9,2,9,3,10,3,10,4],
[31,6,6,6,5,5,5,5,4,0,0],
[20,2,3,2,2,0,0, 0,0, 0,0],
[9,13,6,0,0, 0,0, 0,0, 0,0],
[5,2,4,0,0, 0,0, 0,0, 0,0],
[31,9,15,10,15,10,16,9,16,8,16],
[7,4,14,0,0, 0,0, 0,0, 0,0],
[12,12,16,0,0, 0,0, 0,0, 0,0],
[16,6,14,0,0, 0,0, 0,0, 0,0],
[24,13,14,13,15,13,16,14,16,14,15],
[11,2,13,0,0, 0,0, 0,0, 0,0],
[26,7,10,8,10,9,10,0,0, 0,0],
[38,2,12,2,11,2,10,1,10,0,0],
[36,9,14,8,14,8,13,0,0, 0,0],
[24,13,10,13,9,0,0, 0,0, 0,0],
[38,9,4,9,5,8,5,8,4,8,3],
[35,10,8,11,8,11,7,12,7,0,0],
[16,7,4,0,0, 0,0, 0,0, 0,0],
[29,15,7,14,7,14,8,14,9,0,0],
[51,15,3,14,3,14,2,14,1,15,2],
[17,15,11,16,11,0,0, 0,0, 0,0],
[14,15,15,0,0, 0,0, 0,0, 0,0],
[3,3,6,0,0, 0,0, 0,0, 0,0],
[18,3,14,3,13,3,12,0,0, 0,0],
[51,5,11,5,10,5,9,5,8,5,7],
[42,14,12,14,11,13,11,13,12,12,12],
[33,13,8,12,8,13,7,0,0, 0,0],
[8,1,13,0,0, 0,0, 0,0, 0,0],
[31,7,13,7,12,7,11,0,0, 0,0],
[41,8,12,8,11,9,11,9,12,0,0],
[20,4,16,4,15,3,15,0,0, 0,0],
[2,5,6,0,0, 0,0, 0,0, 0,0],
[13,1,11,1,12,0,0, 0,0, 0,0],
[7,1,2,1,3,0,0, 0,0, 0,0],
[13,13,5,13,4,0,0, 0,0, 0,0],
[1,11,16,0,0, 0,0, 0,0, 0,0],
[23,15,16,16,16,0,0, 0,0, 0,0],
[35,11,12,11,11,12,11,12,10,0,0],
[12,2,15,0,0, 0,0, 0,0, 0,0],
[38,10,9,9,9,9,8,9,7,10,7],
[20,7,16,6,16,0,0, 0,0, 0,0],
[26,1,15,1,14,2,14,0,0, 0,0],
[17,10,1,9,1,0,0, 0,0, 0,0],
[25,5,13,4,13,5,12,6,13,5,14],
[33,4,4,4,5,4,6,4,7,0,0],
[41,7,3,6,3,6,4,6,2,5,2],
[1,14,14,0,0, 0,0, 0,0, 0,0],
[4,11,13,0,0, 0,0, 0,0, 0,0],
[56,11,14,10,14,11,15,12,15,12,14],
[24,7,2,8,2,8,1,0,0, 0,0],
[23,7,8,6,8,0,0, 0,0, 0,0],
[28,16,12,15,12,16,13,0,0, 0,0],
[13,15,4,0,0, 0,0, 0,0, 0,0],
[30,13,13,12,13,14,13,0,0, 0,0],
[26,14,6,14,5,14,4,0,0, 0,0],
[8,3,7,0,0, 0,0, 0,0, 0,0],
[10,6,1,7,1,0,0, 0,0, 0,0],
[12,1,1,0,0, 0,0, 0,0, 0,0],
[28,1,4,1,5,1,6,0,0, 0,0],
[10,1,16,0,0, 0,0, 0,0, 0,0],
[10,2,1,0,0, 0,0, 0,0, 0,0],
[29,2,5,3,5,3,4,0,0, 0,0],
[22,2,6,2,7,0,0, 0,0, 0,0],
[27,2,16,3,16,0,0, 0,0, 0,0],
[36,3,1,3,2,3,3,0,0, 0,0],
[6,3,8,0,0, 0,0, 0,0, 0,0],
[19,3,9,4,9,4,10,0,0, 0,0],
[27,4,1,5,1,4,2,0,0, 0,0],
[17,4,3,5,3,0,0, 0,0, 0,0],
[14,5,15,5,16,0,0, 0,0, 0,0],
[5,6,15,0,0, 0,0, 0,0, 0,0],
[10,7,5,0,0, 0,0, 0,0, 0,0],
[6,7,6,0,0, 0,0, 0,0, 0,0],
[23,7,14,7,15,8,15,0,0, 0,0],
[21,8,6,8,7,0,0, 0,0, 0,0],
[58,9,6,10,6,10,5,11,6,0,0],
[5,11,2,0,0, 0,0, 0,0, 0,0],
[10,11,3,0,0, 0,0, 0,0, 0,0],
[6,11,4,0,0, 0,0, 0,0, 0,0],
[22,12,3,13,3,0,0, 0,0, 0,0],
[13,12,4,12,5,0,0, 0,0, 0,0],
[27,14,10,15,10,0,0, 0,0, 0,0],
[14,16,4,16,5,0,0, 0,0, 0,0]
]
